webassembly/ejemplos_dzn/9/folder9_json_73.dzn
TERM = { '.', 's(2)', 'in_1', 'local_0', 'local_1', 'in_2', 'in_4', 'in_3', 's(1)', 's(0)', 's(3)', 'in_0'};
null = '.';
s = 9;
n = 11;
ndeps = 6;
max_registers_sz = 3;
NR = 0;
registers = [| |];
dependencies = [|'i32.load_0', 'i32.store_5', |'i32.store_5', 'i32.store8_6', |'i32.store8_6', 'i32.store8_7', |'i32.load8_u_1', 'i32.store_5', |'i32.load16_u_3', 'i32.store_5', |'i32.load8_u_4', 'i32.store_5'|];
GET_ENUM = { GET1, GET2, GET3};
SET_ENUM = { SET1, SET2, SET3};
TEE_ENUM = { TEE1, TEE2, TEE3};
N = 9;
OP = { 'i32.load_0', 'i32.load8_u_1', 'i32.load16_u_3', 'i32.load8_u_4', 'i32.store_5', 'i32.store8_6', 'i32.store8_7', 'local.get_0', 'local.get_1' };
in_ops = [1, 1, 1, 1, 2, 2, 2, 0, 0 ];
out_ops = [1, 1, 1, 1, 0, 0, 0, 1, 1 ];
in1 = ['in_0', 's(0)', 'local_1', 's(2)', 's(3)', 'in_1', 'in_3', '.', '.' ];
in2 = ['.', '.', '.', '.', 's(1)', 'in_2', 'in_4', '.', '.' ];
in3 = ['.', '.', '.', '.', '.', '.', '.', '.', '.' ];
out1 = ['s(0)', 's(1)', 's(2)', 's(3)', '.', '.', '.', 'local_0', 'local_1' ];
out2 = ['.', '.', '.', '.', '.', '.', '.', '.', '.' ];
out3 = ['.', '.', '.', '.', '.', '.', '.', '.', '.' ];
comm = [false, false, false, false, false, false, false, false, false ];
gas = [1, 1, 1, 1, 1, 1, 1, 1, 1 ];
sz = [1, 1, 1, 1, 1, 1, 1, 1, 1 ];
stor = [false, false, false, false, true, true, true, false, false ];
lb = [ 1, 1, 1, 1, 1, 1, 1, 1, 1 ];
ub = [ 9, 9, 9, 9, 9, 9, 9, 9, 9 ];
startstack = [ 'in_0', 'in_1', 'in_2', 'in_3', 'in_4', null, null, null, null, null, null ];
endstack = [ 'local_0', null, null, null, null, null, null, null, null, null, null ];
